% seed = 0

mint = 83;
% maxt = 173;

nActs = 51;
dur = [0,5,2,1,5,2,1,9,1,7,6,1,1,4,4,6,2,3,2,6,2,5,2,1,5,2,1,9,1,7,6,1,1,4,4,6,2,3,2,6,2,5,2,1,5,2,1,9,1,7,0];

nSkills = 3;
sreq = [| 0,0,0,
	| 2,1,1,
	| 1,2,0,
	| 2,0,1,
	| 2,0,0,
	| 2,0,2,
	| 0,2,1,
	| 0,1,1,
	| 1,2,0,
	| 2,0,2,
	| 1,0,2,
	| 1,1,1,
	| 0,2,2,
	| 1,0,1,
	| 0,2,0,
	| 2,0,1,
	| 0,2,0,
	| 1,0,1,
	| 0,2,2,
	| 1,0,3,
	| 0,3,0,
	| 2,0,1,
	| 1,2,1,
	| 0,2,1,
	| 2,2,2,
	| 2,0,2,
	| 1,2,0,
	| 1,0,0,
	| 0,2,2,
	| 0,0,2,
	| 1,0,2,
	| 1,1,0,
	| 0,2,0,
	| 1,1,1,
	| 2,2,2,
	| 2,1,0,
	| 0,2,2,
	| 1,1,0,
	| 0,2,2,
	| 1,0,0,
	| 0,3,1,
	| 0,1,1,
	| 1,0,0,
	| 0,2,0,
	| 2,2,0,
	| 2,0,0,
	| 1,0,1,
	| 1,1,0,
	| 1,0,0,
	| 2,0,2,
	| 0,0,0, |];

% SumOfsreq = 144;

nResources = 10;
mastery = [| true,false,true,
	| true,false,true,
	| false,true,false,
	| false,true,true,
	| false,true,false,
	| false,false,true,
	| true,true,true,
	| false,true,false,
	| true,false,false,
	| false,true,false, |];

nPrecs = 81;
pred = [1,1,1,2,2,2,3,3,4,4,5,5,6,6,7,7,8,9,9,10,11,11,12,13,14,15,16,17,18,19,19,20,21,21,21,22,22,22,23,23,24,24,25,25,26,26,27,27,28,29,29,30,31,31,32,33,34,35,36,37,38,39,39,40,41,41,41,42,42,42,43,43,44,44,45,46,47,47,48,49,50];
succ = [2,3,4,9,5,7,5,6,5,6,12,8,12,8,10,8,13,11,12,14,17,14,15,16,18,18,20,19,20,20,21,22,22,23,24,25,27,29,25,26,25,26,28,32,28,32,28,30,33,31,32,34,34,37,35,36,38,38,40,39,40,41,40,42,42,43,44,49,45,47,45,46,45,46,48,48,50,48,51,51,51];

nUnrels = 301;
unpred = [2,2,2,3,3,3,3,3,3,3,3,3,3,3,3,4,4,4,4,4,4,4,4,4,4,4,5,5,5,5,5,5,5,5,5,5,5,5,6,6,6,6,6,6,6,6,6,6,6,7,7,7,7,7,7,7,7,7,7,8,8,8,8,8,8,8,8,8,8,8,8,8,9,9,9,10,10,10,10,10,10,10,10,10,10,10,11,11,11,11,12,12,12,12,12,12,12,12,12,13,13,13,13,13,13,13,13,13,14,14,14,14,14,14,14,14,15,15,15,15,15,15,15,16,16,16,16,16,16,16,17,18,18,18,18,18,20,20,20,20,22,22,22,23,23,23,23,23,23,23,23,23,23,23,23,24,24,24,24,24,24,24,24,24,24,24,25,25,25,25,25,25,25,25,25,25,25,25,26,26,26,26,26,26,26,26,26,26,26,27,27,27,27,27,27,27,27,27,27,28,28,28,28,28,28,28,28,28,28,28,28,28,29,29,29,30,30,30,30,30,30,30,30,30,30,30,31,31,31,31,32,32,32,32,32,32,32,32,32,33,33,33,33,33,33,33,33,33,34,34,34,34,34,34,34,34,35,35,35,35,35,35,35,36,36,36,36,36,36,36,37,38,38,38,38,38,40,40,40,40,42,42,42,43,43,43,43,44,44,44,45,45,45,45,46,46,46,47,48,48,49];
unsucc = [3,4,6,4,7,9,10,11,14,17,19,21,23,24,26,7,9,10,11,14,17,19,21,23,24,26,6,7,9,10,11,14,17,19,21,23,24,26,7,9,10,11,14,17,19,21,23,24,26,9,11,12,15,17,19,21,23,24,26,9,10,11,12,14,15,17,18,19,21,23,24,26,10,13,16,11,12,13,15,16,17,19,21,23,24,26,12,13,15,16,13,14,16,17,19,21,23,24,26,14,15,17,18,19,21,23,24,26,15,16,17,19,21,23,24,26,16,17,19,21,23,24,26,17,18,19,21,23,24,26,18,19,21,23,24,26,21,23,24,26,23,24,26,24,27,29,30,31,34,37,39,41,43,44,46,27,29,30,31,34,37,39,41,43,44,46,26,27,29,30,31,34,37,39,41,43,44,46,27,29,30,31,34,37,39,41,43,44,46,29,31,32,35,37,39,41,43,44,46,29,30,31,32,34,35,37,38,39,41,43,44,46,30,33,36,31,32,33,35,36,37,39,41,43,44,46,32,33,35,36,33,34,36,37,39,41,43,44,46,34,35,37,38,39,41,43,44,46,35,36,37,39,41,43,44,46,36,37,39,41,43,44,46,37,38,39,41,43,44,46,38,39,41,43,44,46,41,43,44,46,43,44,46,44,47,49,50,47,49,50,46,47,49,50,47,49,50,49,49,50,50];

USEFUL_RES = [{},
	{1,2,3,4,5,6,7,8,9,10},
	{1,2,3,4,5,7,8,9,10},
	{1,2,4,6,7,9},
	{1,2,7,9},
	{1,2,4,6,7,9},
	{1,2,3,4,5,6,7,8,10},
	{1,2,3,4,5,6,7,8,10},
	{1,2,3,4,5,7,8,9,10},
	{1,2,4,6,7,9},
	{1,2,4,6,7,9},
	{1,2,3,4,5,6,7,8,9,10},
	{1,2,3,4,5,6,7,8,10},
	{1,2,4,6,7,9},
	{3,4,5,7,8,10},
	{1,2,4,6,7,9},
	{3,4,5,7,8,10},
	{1,2,4,6,7,9},
	{1,2,3,4,5,6,7,8,10},
	{1,2,4,6,7,9},
	{3,4,5,7,8,10},
	{1,2,4,6,7,9},
	{1,2,3,4,5,6,7,8,9,10},
	{1,2,3,4,5,6,7,8,10},
	{1,2,3,4,5,6,7,8,9,10},
	{1,2,4,6,7,9},
	{1,2,3,4,5,7,8,9,10},
	{1,2,7,9},
	{1,2,3,4,5,6,7,8,10},
	{1,2,4,6,7},
	{1,2,4,6,7,9},
	{1,2,3,4,5,7,8,9,10},
	{3,4,5,7,8,10},
	{1,2,3,4,5,6,7,8,9,10},
	{1,2,3,4,5,6,7,8,9,10},
	{1,2,3,4,5,7,8,9,10},
	{1,2,3,4,5,6,7,8,10},
	{1,2,3,4,5,7,8,9,10},
	{1,2,3,4,5,6,7,8,10},
	{1,2,7,9},
	{1,2,3,4,5,6,7,8,10},
	{1,2,3,4,5,6,7,8,10},
	{1,2,7,9},
	{3,4,5,7,8,10},
	{1,2,3,4,5,7,8,9,10},
	{1,2,7,9},
	{1,2,4,6,7,9},
	{1,2,3,4,5,7,8,9,10},
	{1,2,7,9},
	{1,2,4,6,7,9},
	{}];

POTENTIAL_ACT = [{2,3,4,5,6,7,8,9,10,11,12,13,14,16,18,19,20,22,23,24,25,26,27,28,29,30,31,32,34,35,36,37,38,39,40,41,42,43,45,46,47,48,49,50},
	{2,3,4,5,6,7,8,9,10,11,12,13,14,16,18,19,20,22,23,24,25,26,27,28,29,30,31,32,34,35,36,37,38,39,40,41,42,43,45,46,47,48,49,50},
	{2,3,7,8,9,12,13,15,17,19,21,23,24,25,27,29,32,33,34,35,36,37,38,39,41,42,44,45,48},
	{2,3,4,6,7,8,9,10,11,12,13,14,15,16,17,18,19,20,21,22,23,24,25,26,27,29,30,31,32,33,34,35,36,37,38,39,41,42,44,45,47,48,50},
	{2,3,7,8,9,12,13,15,17,19,21,23,24,25,27,29,32,33,34,35,36,37,38,39,41,42,44,45,48},
	{2,4,6,7,8,10,11,12,13,14,16,18,19,20,22,23,24,25,26,29,30,31,34,35,37,39,41,42,47,50},
	{2,3,4,5,6,7,8,9,10,11,12,13,14,15,16,17,18,19,20,21,22,23,24,25,26,27,28,29,30,31,32,33,34,35,36,37,38,39,40,41,42,43,44,45,46,47,48,49,50},
	{2,3,7,8,9,12,13,15,17,19,21,23,24,25,27,29,32,33,34,35,36,37,38,39,41,42,44,45,48},
	{2,3,4,5,6,9,10,11,12,14,16,18,20,22,23,25,26,27,28,31,32,34,35,36,38,40,43,45,46,47,48,49,50},
	{2,3,7,8,9,12,13,15,17,19,21,23,24,25,27,29,32,33,34,35,36,37,38,39,41,42,44,45,48}];
